1133
0	56	141	212	308
47	212	299	321	400
0	122	155	272	321
155	303	379	430	488
32	97	199	261	430
0	58	261	438	488
0	58	358	476	554
98	155	212	415	478
0	478	562	710	841
113	562	582	649	679
128	582	795	818	902
61	224	664	682	818
496	512	682	749	787
512	734	940	997	1071
549	649	788	869	997
